(declare-const delta_j Int)
(declare-const delta_acc Real)
(declare-const delta_i Int)
(declare-const delta_k Int)
(assert (exists
         ((|i'?1| Int) (|k'?2| Int) (|acc'?3| Real) (|S1,0?4| Real)
            (|j'?5| Int) (KSUM1?6 Int) (|K1,0?7| Int) (K?8 Int) (|j'?9| Int)
            (|acc'?10| Real) (|k'?11| Int) (acc?12 Real) (k?13 Int)
            (nj?14 Int) (j?15 Int) (ni?16 Int) (i?17 Int))
         (and (<= (- i?17) 0) (< (+ (- ni?16) i?17) 0) (<= (- K?8) 0)
                (<= (- |K1,0?7|) 0) (= (+ |K1,0?7| (- K?8)) 0)
                (<= (+ KSUM1?6 (- K?8)) 0)
                (= (+ (- |S1,0?4|) |j'?5| (- |K1,0?7|)) 0)
                (= (+ (- KSUM1?6) |K1,0?7|) 0) (= |S1,0?4| 0)
                (or (and (= K?8 0) (= (+ (- |acc'?3|) acc?12) 0)
                           (= (+ (- |k'?2|) k?13) 0) (= (- |j'?5|) 0))
                      (and (<= (+ (- K?8) 1) 0) (<= (+ (- nj?14) 1) 0)
                             (<= (+ (- nj?14) |j'?5|) 0)
                             (<= (+ (- |k'?2|) |j'?5| -2) 0)
                             (<= (- |k'?2|) 0) (<= (+ |k'?2| (- |j'?5|) 1) 0)))
                (= (+ |j'?5| (- K?8)) 0) (<= (- K?8) 0) (<= (- |j'?5|) 0)
                (<= (+ nj?14 (- |j'?5|)) 0) (= (+ |acc'?10| (- |acc'?3|)) 0)
                (= (+ |k'?11| (- |k'?2|)) 0) (= (+ |j'?9| (- |j'?5|)) 0)
                (= (+ |i'?1| (- i?17) -1) 0) (= delta_i (+ |i'?1| (- i?17)))
                (= delta_j (+ |j'?9| (- j?15)))
                (= delta_k (+ |k'?11| (- k?13)))
                (= delta_acc (+ |acc'?10| (- acc?12))))))
(check-sat)
